22,55
91,22
157,81
79,49
35,96
59,18
59,34
189,37
112,42
193,17
5,36
40,68
199,89
74,77
141,51
168,99
25,16
135,51
40,88
81,72
110,6
194,9
57,84
4,59
11,2
86,15
117,39
125,94
191,10
196,40
48,61
4,80
133,72
116,87
177,58
86,83
140,54
79,1
34,27
74,77
186,29
30,59
108,16
112,28
42,85
53,94
117,38
56,20
161,21
135,13
